(set-logic ALL)
(set-option :produce-models true)
(declare-sort BoundSet 0)
(declare-sort UnboundSet 0)
(set-option :finite-model-find true)
(declare-fun CannotBeMeaningfullyAveraged (BoundSet) Bool)
(declare-fun DoesNotExist (BoundSet) Bool)
(assert (not (=> (and (exists ((a BoundSet)) (CannotBeMeaningfullyAveraged a)) (forall ((c BoundSet)) (forall ((d BoundSet)) (=> (DoesNotExist c) (CannotBeMeaningfullyAveraged d))))) (exists ((b BoundSet)) (DoesNotExist b)))))
(check-sat)
(get-model)